benchmarks/VRPTW/TSPTW/solution/n40w40.002.txt.solution
1 6 36 16 8 23 37 12 35 4 20 33 19 2 13 27 26 40 15 28 14 18 30 31 17 3 24 25 32 9 5 7 29 22 11 34 39 10 38 41 21 
461
